elements = 3;
candidates = 59;
requirements = [64, 13, 40];
candidate_sets = [| 0, 1, 0
	| 0, 1, 8
	| 8, 1, 0
	| 0, 2, 0
	| 0, 2, 4
	| 4, 2, 0
	| 0, 2, 0
	| 0, 2, 4
	| 4, 2, 0
	| 0, 2, 0
	| 0, 2, 4
	| 4, 2, 0
	| 0, 2, 0
	| 0, 2, 4
	| 4, 2, 0
	| 0, 2, 0
	| 0, 2, 4
	| 4, 2, 0
	| 0, 2, 0
	| 0, 2, 4
	| 4, 2, 0
	| 0, 2, 0
	| 0, 2, 4
	| 4, 2, 0
	| 0, 2, 0
	| 0, 2, 4
	| 4, 2, 0
	| 0, 2, 0
	| 0, 2, 4
	| 4, 2, 0
	| 0, 4, 0
	| 0, 4, 0
	| 0, 4, 0
	| 0, 4, 0
	| 0, 4, 0
	| 0, 0, 8
	| 0, 1, 8
	| 2, 0, 6
	| 2, 0, 6
	| 0, 0, 8
	| 0, 1, 8
	| 2, 0, 6
	| 2, 0, 6
	| 0, 0, 8
	| 0, 1, 8
	| 2, 0, 6
	| 2, 0, 6
	| 8, 0, 0
	| 8, 1, 0
	| 6, 0, 2
	| 6, 0, 2
	| 8, 0, 0
	| 8, 1, 0
	| 6, 0, 2
	| 6, 0, 2
	| 8, 0, 0
	| 8, 1, 0
	| 6, 0, 2
	| 6, 0, 2
	|];
candidate_weights = [13995,
	13931,
	13931,
	13995,
	13947,
	13947,
	13995,
	13947,
	13947,
	13973,
	13940,
	13940,
	13976,
	13941,
	13941,
	13973,
	13940,
	13940,
	13995,
	13947,
	13947,
	13995,
	13947,
	13947,
	13995,
	13947,
	13947,
	13983,
	13943,
	13943,
	13964,
	13965,
	13964,
	13973,
	13976,
	13923,
	13931,
	13923,
	13923,
	13923,
	13931,
	13923,
	13923,
	13923,
	13931,
	13923,
	13923,
	13923,
	13931,
	13923,
	13923,
	13923,
	13931,
	13923,
	13923,
	13923,
	13931,
	13923,
	13923];
